p cnf 177 208
-960 -1287 -1291 0
-222 -1295 -1324 -1328 0
-1107 -1295 -1334 -1364 0
-1107 -1300 -1321 -1339 -1370 0
-1290 -1339 -1347 -1831 0
-1283 -1295 -1972 0
-1283 -1295 -2033 0
-1107 -1295 -1321 -1334 -2137 0
-1107 -1289 -1291 -1321 -2138 0
-1107 -1290 -1321 -1339 -2139 0
-960 -1283 -1288 -1295 0
-589 -1283 -1295 -2168 0
-589 -1290 -1339 -2169 0
-1333 -1339 -2175 0
-1290 -1339 -2176 0
-1283 -1295 -1300 -1369 -2701 0
-1283 -1295 -1300 -1369 -2709 0
-1283 -1295 -1300 -1369 -2710 0
-222 -1295 -1324 -1334 -3048 0
-1107 -1295 -1321 -1334 -3051 0
-222 -1324 -2141 -2174 -3058 0
-589 -1339 -1341 -2166 -3082 0
-1295 -1330 -2131 -2325 -3083 0
-1339 -2325 -3084 0
-1290 -1339 -1366 -3091 0
-1339 -1341 -2166 -3092 0
-222 -1295 -1324 -3094 0
-222 -1324 -1333 -1339 -3095 0
-1107 -1321 -1339 -3097 0
-589 -1283 -1295 -3125 0
-589 -1339 -3126 0
-589 -1333 -1339 -3127 0
-589 -1339 -1341 -2166 -3128 0
-589 -1299 -1339 -2166 -3129 0
-1283 -1288 -1295 -2325 -3130 0
-1333 -1339 -2325 -3131 0
-1295 -1372 -3132 0
-222 -1339 -3135 0
-1339 -3137 0
-1339 -1341 -2166 -3138 0
-1339 -2166 -3215 0
-1295 -1334 -2141 -3087 -3325 0
-1283 -1288 -1295 -1303 -3383 0
-589 -1290 -1339 -3441 0
-1283 -1295 -2325 -3442 0
-1295 -1330 -2164 -3446 0
-1283 -1288 -1295 -2174 -3448 0
-1283 -1288 -1295 -3449 0
-1295 -1305 -1330 -3450 0
-1290 -1339 -3577 0
-1290 -1339 -3581 0
-1290 -1339 -3582 0
-1295 -1306 -1330 -2131 -3661 0
-1295 -1330 -2164 -3721 0
-1295 -1330 -2164 -3729 0
-1283 -1288 -1295 -2174 -3933 0
-1283 -1288 -1295 -2174 -3939 0
-1283 -1288 -1295 -2174 -3940 0
-1283 -1295 -1369 -4154 0
-1283 -1295 -1369 -4158 0
-1283 -1295 -1369 -4159 0
-1295 -1330 -2325 -4261 0
-1333 -1339 -1372 -4262 0
-1107 -1295 -1300 -1321 -4267 0
-1295 -1330 -2131 -4271 0
-1339 -4439 0
-1339 -4445 0
-1339 -4446 0
-1299 -1339 -2166 -3447 -4567 0
-222 -1295 -4570 0
-1295 -1330 -3077 -4618 0
-1295 -1334 -4821 0
-1295 -1334 -4829 0
-1295 -1334 -4830 0
-589 -1339 -5070 0
-589 -1290 -1339 -5071 0
-1295 -1334 -3447 -5072 0
-1283 -1288 -1295 -2325 -5073 0
-1339 -1372 -5074 0
-1283 -1288 -1295 -2174 -5081 0
-1333 -1339 -5082 0
-1333 -1339 -5130 0
-1333 -1339 -5132 0
-1299 -1322 -1339 -2166 -5270 0
-1299 -1322 -1339 -2166 -5295 0
-1299 -1339 -2166 -5582 0
-1299 -1339 -2166 -5588 0
-1299 -1339 -2166 -5589 0
-1295 -1330 -2131 -5975 0
-1295 -1330 -2131 -5981 0
-1295 -1330 -2131 -5982 0
-1295 -1330 -2131 -6104 0
-1295 -6275 0
-1295 -6314 0
-1295 -1334 -3447 -6348 0
-1295 -1334 -1372 -6356 0
-1107 -1300 -1321 -1339 -6359 0
-222 -1290 -1324 -1339 -6388 0
-1331 -1333 -1339 -6275 0
-1339 -1341 -2138 -2166 -2701 0
-1307 -1339 -1341 -2166 -3661 0
-1299 -1339 -1343 -2166 -3383 0
-1290 -1339 -1346 -3661 0
-1339 -2153 -3450 0
-1299 -1339 -2165 -2166 -3446 0
-1289 -1339 -2166 -3052 -3092 0
-1287 -1339 -2166 -3052 -3449 0
-1339 -2166 -3052 -4271 0
-1291 -2325 -3083 0
-1291 -1306 -3661 0
-1291 -4271 0
-1291 -5975 0
-1339 -2166 -3052 -5982 0
-1339 -2143 -2164 -3084 -3446 0
-1339 -2131 -2143 -3084 -4271 0
-1305 -1339 -2143 -3084 -3450 0
-1339 -2143 -3077 -3084 -4618 0
-1339 -2148 -2710 -3084 0
-1339 -2396 -3084 0
-1339 -2164 -3054 -3084 -3446 0
-1305 -1339 -3054 -3084 -3450 0
-1339 -2131 -3054 -3084 -4271 0
-1339 -3054 -3077 -3084 -4618 0
-1339 -2166 -2174 -3057 -3448 0
-1339 -2166 -3057 -3449 0
-960 -3058 0
-1339 -2138 -2710 -3061 -3084 0
-1339 -3061 -3084 -3092 0
-1339 -1347 -1831 -3098 0
-1107 -1321 -1339 -2139 -3098 0
-589 -1339 -2169 -3098 0
-1300 -1339 -1370 -2701 0
-1339 -2701 -3097 0
-1339 -1370 -4154 0
-3119 -3450 0
-1297 -1340 -1365 -1366 -1372 -2100 -2144 -2175 -3091 -3132 -3137 -3138 -3407 -3408 -3415 -3416 -3417 -3437 -3442 -3446 -3447 -3448 -3449 -4241 -4270 -4539 -4559 -4567 -5072 0
-1288 -1297 -1340 -1341 -1365 -1372 -2100 -2144 -2164 -2175 -2176 -3091 -3092 -3132 -3137 -3407 -3408 -3415 -3416 -3417 -3446 -3447 -3448 -3449 -4241 -4270 -4559 -4567 -5072 0
-1288 -1294 -1297 -1301 -1302 -1319 -1341 -1365 -2100 -2144 -2164 -2175 -2176 -3091 -3092 -3093 -3104 -3137 -3415 -3416 -3446 -3447 -3449 -4241 -4270 -4271 -4559 -4567 -5072 0
-1288 -1297 -1301 -1302 -1341 -1365 -2100 -2144 -2175 -2176 -3091 -3092 -3093 -3104 -3137 -3408 -3415 -3416 -3446 -3447 -3448 -3449 -4241 -4261 -4270 -4271 -4559 -4567 -5072 0
-1297 -1340 -1341 -1365 -2100 -2144 -2175 -2176 -3091 -3092 -3093 -3104 -3137 -3408 -3415 -3416 -3417 -3442 -3446 -3447 -3448 -3449 -4241 -4261 -4270 -4271 -4559 -4567 -5072 0
-1297 -1340 -1365 -2100 -2144 -2164 -2175 -2176 -3052 -3091 -3092 -3093 -3104 -3137 -3408 -3415 -3416 -3417 -3442 -3446 -3447 -3448 -3449 -4241 -4270 -4271 -4559 -4567 -5072 0
-1288 -1297 -1340 -1365 -2100 -2144 -2175 -2176 -3052 -3091 -3092 -3093 -3104 -3137 -3408 -3415 -3416 -3417 -3446 -3447 -3448 -3449 -4241 -4261 -4270 -4271 -4559 -4567 -5072 0
-1297 -1340 -1365 -2100 -2144 -2175 -2176 -3052 -3091 -3092 -3093 -3104 -3137 -3408 -3415 -3416 -3417 -3442 -3446 -3447 -3448 -3449 -4241 -4261 -4270 -4271 -4559 -4567 -5072 0
-1297 -1340 -1365 -2100 -2144 -2175 -2176 -3052 -3091 -3092 -3093 -3137 -3408 -3415 -3416 -3417 -3442 -3446 -3447 -3448 -3449 -4241 -4261 -4270 -4271 -4559 -4567 -5072 -6380 0
-1288 -1297 -1340 -1341 -1365 -2100 -2144 -2175 -2176 -3091 -3092 -3104 -3137 -3408 -3415 -3416 -3417 -3446 -3447 -3448 -3449 -4229 -4241 -4261 -4270 -4271 -4559 -4567 -5072 0
-1288 -1297 -1340 -1365 -2100 -2144 -2175 -2176 -3052 -3091 -3092 -3104 -3137 -3408 -3415 -3416 -3417 -3446 -3447 -3448 -3449 -4229 -4241 -4261 -4270 -4271 -4559 -4567 -5072 0
-1297 -1340 -1365 -2100 -2144 -2164 -2175 -2176 -3052 -3091 -3092 -3104 -3137 -3408 -3415 -3416 -3417 -3442 -3446 -3447 -3448 -3449 -4229 -4241 -4270 -4271 -4559 -4567 -5072 0
-1297 -1340 -1341 -1365 -2100 -2144 -2175 -2176 -3091 -3092 -3104 -3137 -3408 -3415 -3416 -3417 -3442 -3446 -3447 -3448 -3449 -4229 -4241 -4261 -4270 -4271 -4559 -4567 -5072 0
-1297 -1340 -1365 -2100 -2144 -2175 -2176 -3052 -3091 -3092 -3104 -3137 -3408 -3415 -3416 -3417 -3442 -3446 -3447 -3448 -3449 -4229 -4241 -4261 -4270 -4271 -4559 -4567 -5072 0
-1297 -1340 -1365 -2100 -2144 -2175 -2176 -3052 -3091 -3092 -3104 -3137 -3408 -3415 -3416 -3417 -3442 -3446 -3447 -3448 -3449 -4235 -4241 -4261 -4270 -4271 -4559 -4567 -5072 0
-1288 -1297 -1340 -1341 -1365 -2100 -2144 -2175 -2176 -3091 -3092 -3104 -3137 -3408 -3415 -3416 -3417 -3446 -3447 -3448 -3449 -4241 -4261 -4270 -4271 -4559 -4567 -5043 -5072 0
-1297 -1340 -1341 -1365 -2100 -2144 -2175 -2176 -3091 -3092 -3104 -3137 -3408 -3415 -3416 -3417 -3442 -3446 -3447 -3448 -3449 -4241 -4261 -4270 -4271 -4559 -4567 -5043 -5072 0
-1297 -1340 -1365 -2100 -2144 -2175 -2176 -3052 -3091 -3092 -3104 -3137 -3408 -3415 -3416 -3417 -3442 -3446 -3447 -3448 -3449 -4241 -4261 -4270 -4271 -4559 -4567 -5043 -5072 0
-1288 -1297 -1340 -1341 -1365 -2100 -2144 -2175 -2176 -3091 -3092 -3137 -3408 -3415 -3416 -3417 -3446 -3447 -3448 -3449 -4241 -4261 -4270 -4271 -4559 -4567 -5043 -5072 -6380 0
-1288 -1297 -1340 -1365 -2100 -2144 -2164 -2175 -2176 -3052 -3091 -3092 -3137 -3408 -3415 -3416 -3417 -3446 -3447 -3448 -3449 -4229 -4241 -4270 -4271 -4559 -4567 -5072 -6380 0
-1297 -1340 -1365 -2100 -2144 -2164 -2175 -2176 -3052 -3091 -3092 -3137 -3408 -3415 -3416 -3417 -3442 -3446 -3447 -3448 -3449 -4229 -4241 -4270 -4271 -4559 -4567 -5072 -6380 0
-1297 -1340 -1341 -1365 -2100 -2144 -2175 -2176 -3091 -3092 -3137 -3408 -3415 -3416 -3417 -3442 -3446 -3447 -3448 -3449 -4229 -4241 -4261 -4270 -4271 -4559 -4567 -5072 -6380 0
-1297 -1340 -1365 -2100 -2144 -2175 -2176 -3052 -3091 -3092 -3137 -3408 -3415 -3416 -3417 -3442 -3446 -3447 -3448 -3449 -4229 -4241 -4261 -4270 -4271 -4559 -4567 -5072 -6380 0
-1288 -1297 -1340 -1365 -2100 -2144 -2175 -2176 -3052 -3091 -3092 -3137 -3408 -3415 -3416 -3417 -3446 -3447 -3448 -3449 -4235 -4241 -4261 -4270 -4271 -4559 -4567 -5072 -6380 0
-1297 -1340 -1365 -2100 -2144 -2175 -2176 -3052 -3091 -3092 -3137 -3408 -3415 -3416 -3417 -3442 -3446 -3447 -3448 -3449 -4235 -4241 -4261 -4270 -4271 -4559 -4567 -5072 -6380 0
-1297 -1340 -1341 -1365 -2100 -2144 -2175 -2176 -3091 -3092 -3137 -3408 -3415 -3416 -3417 -3442 -3446 -3447 -3448 -3449 -4241 -4261 -4270 -4271 -4559 -4567 -5043 -5072 -6380 0
-1297 -1340 -1365 -2100 -2144 -2175 -2176 -3052 -3091 -3092 -3137 -3408 -3415 -3416 -3417 -3442 -3446 -3447 -3448 -3449 -4241 -4261 -4270 -4271 -4559 -4567 -5043 -5072 -6380 0
-1288 -1297 -1340 -1365 -1372 -2100 -2144 -2164 -2175 -2176 -3052 -3091 -3092 -3132 -3137 -3408 -3415 -3416 -3417 -3446 -3447 -3448 -3449 -4241 -4270 -4271 -4559 -4567 -5072 0
-1288 -1297 -1340 -1365 -1372 -2100 -2144 -2175 -2176 -3052 -3091 -3092 -3132 -3137 -3408 -3415 -3416 -3417 -3446 -3447 -3448 -3449 -4241 -4261 -4270 -4271 -4559 -4567 -5072 0
-1297 -1340 -1341 -1365 -1372 -2100 -2144 -2175 -2176 -3091 -3092 -3132 -3137 -3408 -3415 -3416 -3417 -3442 -3446 -3447 -3448 -3449 -4241 -4261 -4270 -4271 -4559 -4567 -5072 0
-1297 -1340 -1365 -1372 -2100 -2144 -2164 -2175 -2176 -3052 -3091 -3092 -3132 -3137 -3408 -3415 -3416 -3417 -3442 -3446 -3447 -3448 -3449 -4241 -4270 -4271 -4559 -4567 -5072 0
-1297 -1340 -1365 -1372 -2100 -2144 -2175 -2176 -3052 -3091 -3092 -3132 -3137 -3408 -3415 -3416 -3417 -3442 -3446 -3447 -3448 -3449 -4241 -4261 -4270 -4271 -4559 -4567 -5072 0
-20 -1297 -1314 -1340 -1365 -1372 -2144 -2175 -2176 -3052 -3091 -3092 -3132 -3137 -3408 -3415 -3416 -3417 -3442 -3446 -3447 -3448 -3449 -4241 -4261 -4270 -4271 -4567 -5072 0
-1288 -1289 -1297 -1340 -1341 -1365 -1372 -2144 -2164 -2175 -2176 -3091 -3092 -3132 -3137 -3408 -3415 -3416 -3417 -3446 -3447 -3448 -3449 -4241 -4270 -4561 -4567 -5072 -5356 0
-1288 -1297 -1340 -1365 -1372 -2144 -2164 -2175 -2176 -3052 -3091 -3092 -3132 -3137 -3408 -3415 -3416 -3417 -3446 -3447 -3448 -3449 -4241 -4270 -4271 -4561 -4567 -5072 -5356 0
-1288 -1297 -1340 -1365 -1372 -2144 -2175 -2176 -3052 -3091 -3092 -3132 -3137 -3408 -3415 -3416 -3417 -3446 -3447 -3448 -3449 -4241 -4261 -4270 -4271 -4561 -4567 -5072 -5356 0
-1297 -1340 -1341 -1365 -1372 -2144 -2175 -2176 -3091 -3092 -3132 -3137 -3408 -3415 -3416 -3417 -3442 -3446 -3447 -3448 -3449 -4241 -4261 -4270 -4271 -4561 -4567 -5072 -5356 0
-1297 -1340 -1365 -1372 -2144 -2164 -2175 -2176 -3052 -3091 -3092 -3132 -3137 -3408 -3415 -3416 -3417 -3442 -3446 -3447 -3448 -3449 -4241 -4270 -4271 -4561 -4567 -5072 -5356 0
-1297 -1340 -1365 -1372 -2144 -2175 -2176 -3052 -3091 -3092 -3132 -3137 -3408 -3415 -3416 -3417 -3442 -3446 -3447 -3448 -3449 -4241 -4261 -4270 -4271 -4561 -4567 -5072 -5356 0
-1288 -1297 -1340 -1341 -1365 -1372 -2144 -2164 -2175 -2176 -3091 -3092 -3093 -3137 -3408 -3415 -3416 -3417 -3446 -3447 -3448 -3449 -4241 -4270 -4271 -4561 -4567 -5072 -5356 0
-20 -1288 -1297 -1314 -1340 -1365 -1372 -2144 -2164 -2175 -2176 -3052 -3091 -3092 -3093 -3137 -3408 -3415 -3416 -3417 -3446 -3447 -3448 -3449 -4241 -4270 -4271 -4567 -5072 0
-20 -1297 -1314 -1340 -1365 -1372 -2144 -2164 -2175 -2176 -3052 -3091 -3092 -3093 -3137 -3408 -3415 -3416 -3417 -3442 -3446 -3447 -3448 -3449 -4241 -4270 -4271 -4567 -5072 0
-20 -1297 -1314 -1340 -1341 -1365 -1366 -1372 -2144 -2175 -3091 -3092 -3093 -3137 -3408 -3415 -3416 -3417 -3442 -3446 -3447 -3448 -3449 -4241 -4261 -4270 -4271 -4567 -5072 0
-20 -1288 -1297 -1314 -1340 -1341 -1365 -1372 -2144 -2175 -2176 -3091 -3092 -3093 -3137 -3408 -3415 -3416 -3417 -3446 -3447 -3448 -3449 -4241 -4261 -4270 -4271 -4567 -5072 0
-20 -1288 -1297 -1314 -1340 -1365 -1372 -2144 -2175 -2176 -3052 -3091 -3092 -3093 -3137 -3408 -3415 -3416 -3417 -3446 -3447 -3448 -3449 -4241 -4261 -4270 -4271 -4567 -5072 0
-20 -1297 -1314 -1340 -1365 -1372 -2144 -2175 -2176 -3052 -3091 -3092 -3093 -3137 -3408 -3415 -3416 -3417 -3442 -3446 -3447 -3448 -3449 -4241 -4261 -4270 -4271 -4567 -5072 0
-1297 -1340 -1365 -1372 -2144 -2175 -2176 -3052 -3091 -3092 -3093 -3137 -3408 -3415 -3416 -3417 -3442 -3446 -3447 -3448 -3449 -4241 -4261 -4270 -4271 -4561 -4567 -5072 -5356 0
-20 -1289 -1297 -1314 -1340 -1341 -1365 -1372 -2144 -2164 -2175 -2176 -3091 -3092 -3137 -3408 -3415 -3416 -3417 -3442 -3446 -3447 -3448 -3449 -4229 -4241 -4270 -4567 -5072 0
-20 -1288 -1297 -1314 -1340 -1365 -1372 -2144 -2164 -2175 -2176 -3052 -3091 -3092 -3137 -3408 -3415 -3416 -3417 -3446 -3447 -3448 -3449 -4229 -4241 -4270 -4271 -4567 -5072 0
-20 -1288 -1297 -1314 -1340 -1365 -1372 -2144 -2175 -2176 -3052 -3091 -3092 -3137 -3408 -3415 -3416 -3417 -3446 -3447 -3448 -3449 -4229 -4241 -4261 -4270 -4271 -4567 -5072 0
-20 -1289 -1297 -1314 -1340 -1341 -1365 -1372 -2144 -2175 -2176 -3091 -3092 -3137 -3408 -3415 -3416 -3417 -3442 -3446 -3447 -3448 -3449 -4229 -4241 -4261 -4270 -4567 -5072 0
-20 -1297 -1314 -1340 -1341 -1365 -1372 -2144 -2175 -2176 -3091 -3092 -3137 -3407 -3408 -3415 -3416 -3417 -3442 -3446 -3447 -3448 -3449 -4229 -4241 -4261 -4270 -4567 -5072 0
-20 -1297 -1314 -1340 -1365 -1372 -2144 -2164 -2175 -2176 -3052 -3091 -3092 -3137 -3408 -3415 -3416 -3417 -3442 -3446 -3447 -3448 -3449 -4229 -4241 -4270 -4271 -4567 -5072 0
-20 -1297 -1314 -1340 -1365 -1372 -2144 -2175 -2176 -3052 -3091 -3092 -3137 -3408 -3415 -3416 -3417 -3442 -3446 -3447 -3448 -3449 -4229 -4241 -4261 -4270 -4271 -4567 -5072 0
-20 -1297 -1314 -1340 -1365 -1372 -2144 -2175 -2176 -3052 -3091 -3092 -3137 -3408 -3415 -3416 -3417 -3442 -3446 -3447 -3448 -3449 -4235 -4241 -4261 -4270 -4271 -4567 -5072 0
-20 -1288 -1289 -1297 -1314 -1340 -1341 -1365 -1366 -1372 -2144 -2164 -2175 -3091 -3092 -3137 -3408 -3415 -3416 -3417 -3446 -3447 -3448 -3449 -4241 -4270 -4567 -5043 -5072 0
-20 -1288 -1289 -1297 -1314 -1340 -1341 -1365 -1372 -2144 -2164 -2175 -2176 -3091 -3092 -3137 -3408 -3415 -3416 -3417 -3446 -3447 -3448 -3449 -4241 -4270 -4567 -5043 -5072 0
-20 -1287 -1288 -1297 -1314 -1340 -1341 -1365 -1372 -2144 -2164 -2175 -2176 -3091 -3092 -3137 -3408 -3415 -3416 -3417 -3446 -3447 -3448 -3449 -4241 -4270 -4567 -5043 -5072 0
-20 -1287 -1297 -1314 -1340 -1341 -1365 -1366 -1372 -2144 -2164 -2175 -3091 -3092 -3137 -3408 -3415 -3416 -3417 -3442 -3446 -3447 -3448 -3449 -4241 -4270 -4567 -5043 -5072 0
-20 -1297 -1314 -1340 -1365 -1372 -2144 -2175 -2176 -3052 -3091 -3092 -3137 -3408 -3415 -3416 -3417 -3442 -3446 -3447 -3448 -3449 -4241 -4261 -4270 -4271 -4567 -5043 -5072 0
-1288 -1297 -1340 -1365 -1372 -2144 -2164 -2175 -2176 -3052 -3091 -3092 -3137 -3408 -3415 -3416 -3417 -3446 -3447 -3448 -3449 -4229 -4241 -4270 -4271 -4561 -4567 -5072 -5356 0
-1289 -1297 -1340 -1341 -1365 -1372 -2144 -2164 -2175 -2176 -3091 -3092 -3137 -3408 -3415 -3416 -3417 -3442 -3446 -3447 -3448 -3449 -4229 -4241 -4270 -4561 -4567 -5072 -5356 0
-1297 -1302 -1340 -1365 -1372 -2144 -2164 -2175 -2176 -3052 -3091 -3092 -3137 -3408 -3415 -3416 -3442 -3446 -3447 -3448 -3449 -4229 -4241 -4270 -4271 -4561 -4567 -5072 -5356 0
-1297 -1340 -1365 -1372 -2144 -2175 -2176 -3052 -3091 -3092 -3137 -3408 -3415 -3416 -3417 -3442 -3446 -3447 -3448 -3449 -4229 -4241 -4261 -4270 -4271 -4561 -4567 -5072 -5356 0
-1288 -1289 -1297 -1340 -1341 -1365 -1372 -2144 -2175 -2176 -3091 -3092 -3137 -3408 -3415 -3416 -3417 -3446 -3447 -3448 -3449 -4235 -4241 -4261 -4270 -4561 -4567 -5072 -5356 0
-1297 -1340 -1365 -1372 -2144 -2164 -2175 -2176 -3052 -3091 -3092 -3137 -3408 -3415 -3416 -3417 -3442 -3446 -3447 -3448 -3449 -4235 -4241 -4270 -4271 -4561 -4567 -5072 -5356 0
-1297 -1340 -1365 -1372 -2144 -2175 -2176 -3052 -3091 -3092 -3137 -3408 -3415 -3416 -3417 -3442 -3446 -3447 -3448 -3449 -4235 -4241 -4261 -4270 -4271 -4561 -4567 -5072 -5356 0
-1288 -1297 -1340 -1365 -1372 -2144 -2175 -2176 -3052 -3091 -3092 -3137 -3408 -3415 -3416 -3417 -3446 -3447 -3448 -3449 -4241 -4261 -4270 -4271 -4561 -4567 -5043 -5072 -5356 0
-1289 -1297 -1340 -1341 -1365 -1366 -1372 -2144 -2164 -2175 -3091 -3092 -3137 -3408 -3415 -3416 -3417 -3442 -3446 -3447 -3448 -3449 -4241 -4270 -4561 -4567 -5043 -5072 -5356 0
-1289 -1297 -1340 -1341 -1365 -1372 -2144 -2164 -2175 -2176 -3091 -3092 -3137 -3408 -3415 -3416 -3417 -3442 -3446 -3447 -3448 -3449 -4241 -4270 -4561 -4567 -5043 -5072 -5356 0
-1289 -1297 -1340 -1341 -1365 -1372 -2144 -2175 -2176 -3091 -3092 -3137 -3408 -3415 -3416 -3417 -3442 -3446 -3447 -3448 -3449 -4241 -4261 -4270 -4561 -4567 -5043 -5072 -5356 0
-1297 -1340 -1341 -1365 -1366 -1372 -2144 -2175 -3091 -3092 -3137 -3408 -3415 -3416 -3417 -3442 -3446 -3447 -3448 -3449 -4241 -4261 -4270 -4271 -4561 -4567 -5043 -5072 -5356 0
-1287 -1297 -1340 -1341 -1365 -1372 -2144 -2164 -2175 -2176 -3091 -3092 -3137 -3408 -3415 -3416 -3417 -3442 -3446 -3447 -3448 -3449 -4241 -4270 -4561 -4567 -5043 -5072 -5356 0
